coords = array2d(1..51, 1..2, [582, 865, 544, 164, 442, 226, 231, 543, 564,
    532, 660, 24, 533, 372, 692, 674, 260, 211, 672, 55, 109, 360,
    512, 551, 30, 197, 780, 718, 982, 906, 614, 305, 726, 766, 614,
    603, 732, 632, 277, 460, 707, 762, 757, 53, 633, 437, 650, 567,
    697, 5, 271, 495, 52, 276, 730, 258, 546, 602, 142, 34, 303, 521,
    995, 74, 932, 868, 189, 99, 737, 82, 265, 660, 587, 403, 941, 979,
    157, 741, 737, 687, 713, 55, 154, 173, 837, 887, 941, 141, 683,
    174, 95, 370, 700, 716, 479, 820, 937, 754, 304, 708, 575, 537]);

n = 51;

